c nombre: 11
c densidad: 0.1
p edges 100 495
e 1 4
e 1 9
e 1 28
e 1 30
e 1 31
e 1 59
e 1 62
e 1 72
e 1 78
e 1 84
e 1 87
e 1 90
e 1 93
e 1 94
e 1 95
e 1 99
e 2 40
e 2 48
e 2 54
e 2 67
e 2 77
e 2 81
e 2 83
e 2 92
e 2 93
e 3 4
e 3 32
e 3 35
e 3 37
e 3 43
e 3 47
e 3 48
e 3 49
e 3 63
e 3 64
e 3 66
e 3 99
e 4 5
e 4 12
e 4 26
e 4 48
e 4 52
e 4 67
e 4 76
e 4 84
e 4 86
e 5 30
e 5 31
e 5 41
e 5 45
e 5 52
e 5 68
e 5 83
e 5 88
e 6 20
e 6 26
e 6 36
e 6 80
e 7 17
e 7 25
e 7 36
e 7 46
e 7 60
e 7 73
e 7 85
e 7 94
e 8 21
e 8 26
e 8 35
e 8 47
e 8 58
e 8 76
e 8 83
e 8 85
e 9 12
e 9 45
e 9 75
e 10 17
e 10 23
e 10 37
e 10 70
e 10 96
e 11 27
e 11 37
e 11 51
e 11 54
e 11 59
e 11 83
e 11 94
e 12 34
e 12 39
e 12 42
e 12 71
e 12 78
e 12 87
e 12 94
e 12 98
e 13 36
e 13 44
e 13 61
e 13 65
e 13 66
e 13 80
e 14 17
e 14 27
e 14 32
e 14 37
e 14 39
e 14 60
e 14 90
e 15 18
e 15 37
e 15 59
e 15 74
e 15 83
e 16 29
e 16 38
e 16 43
e 16 77
e 16 96
e 17 23
e 17 47
e 17 56
e 17 63
e 17 75
e 17 78
e 17 80
e 17 81
e 17 86
e 17 93
e 17 99
e 18 21
e 18 24
e 18 25
e 18 51
e 18 70
e 18 72
e 18 77
e 18 78
e 18 87
e 19 33
e 19 37
e 19 45
e 19 52
e 19 76
e 19 85
e 20 63
e 20 68
e 20 86
e 20 88
e 21 27
e 21 50
e 21 60
e 21 66
e 21 69
e 21 75
e 21 83
e 22 23
e 22 33
e 22 40
e 22 54
e 22 58
e 22 62
e 22 77
e 22 81
e 22 84
e 23 29
e 23 30
e 23 41
e 23 48
e 23 50
e 23 59
e 23 66
e 23 74
e 23 82
e 23 83
e 24 25
e 24 34
e 24 37
e 24 52
e 24 57
e 24 70
e 24 72
e 24 90
e 25 34
e 25 35
e 25 57
e 25 84
e 25 98
e 26 30
e 26 34
e 26 35
e 26 59
e 26 60
e 26 61
e 26 81
e 27 38
e 27 49
e 27 59
e 27 72
e 27 73
e 27 86
e 27 98
e 28 32
e 28 69
e 28 74
e 28 85
e 28 95
e 29 30
e 29 33
e 29 38
e 29 59
e 29 83
e 29 89
e 29 100
e 30 31
e 30 38
e 30 44
e 30 93
e 30 94
e 30 96
e 31 32
e 31 42
e 31 43
e 31 50
e 31 51
e 31 52
e 31 55
e 31 58
e 31 69
e 31 71
e 31 80
e 31 83
e 32 33
e 32 35
e 32 42
e 32 52
e 32 67
e 32 81
e 32 99
e 32 100
e 33 40
e 33 45
e 33 47
e 33 50
e 33 62
e 33 65
e 33 72
e 33 83
e 34 49
e 34 51
e 34 53
e 34 58
e 34 59
e 34 61
e 34 66
e 34 75
e 34 78
e 34 88
e 34 92
e 34 98
e 35 36
e 35 46
e 35 66
e 35 74
e 35 77
e 35 86
e 35 94
e 36 38
e 36 39
e 36 41
e 36 44
e 36 51
e 36 56
e 36 62
e 36 75
e 36 79
e 36 82
e 36 85
e 36 91
e 36 99
e 37 46
e 37 62
e 37 81
e 37 93
e 38 58
e 38 79
e 38 87
e 39 42
e 39 53
e 39 67
e 39 74
e 40 60
e 40 76
e 40 85
e 40 89
e 40 93
e 41 45
e 41 48
e 41 55
e 41 91
e 41 95
e 41 100
e 42 46
e 42 51
e 42 76
e 42 81
e 42 88
e 42 95
e 43 60
e 43 61
e 43 72
e 43 81
e 43 88
e 43 89
e 43 90
e 43 91
e 43 92
e 43 97
e 44 52
e 44 64
e 44 67
e 44 74
e 44 79
e 45 54
e 45 56
e 45 65
e 45 89
e 45 91
e 46 47
e 46 53
e 46 63
e 46 70
e 46 87
e 46 88
e 46 94
e 47 50
e 47 54
e 47 75
e 47 77
e 47 88
e 47 91
e 48 49
e 48 51
e 48 54
e 48 78
e 48 84
e 48 92
e 48 98
e 49 57
e 49 61
e 49 64
e 49 68
e 49 78
e 49 85
e 49 91
e 49 93
e 50 57
e 50 65
e 50 71
e 50 85
e 50 88
e 51 52
e 51 58
e 52 75
e 52 80
e 52 81
e 52 82
e 52 92
e 53 58
e 53 63
e 53 66
e 53 76
e 53 81
e 54 69
e 54 76
e 54 93
e 54 98
e 54 99
e 55 82
e 56 60
e 56 81
e 56 88
e 57 61
e 57 72
e 57 77
e 57 84
e 57 96
e 58 60
e 58 63
e 58 78
e 58 79
e 58 83
e 58 84
e 58 93
e 58 96
e 59 76
e 59 84
e 59 93
e 60 71
e 60 80
e 60 91
e 60 98
e 60 99
e 60 100
e 61 78
e 61 80
e 61 83
e 61 84
e 61 91
e 63 92
e 63 100
e 64 69
e 64 70
e 64 71
e 65 74
e 65 92
e 65 97
e 66 88
e 66 98
e 67 71
e 67 79
e 67 92
e 67 99
e 68 70
e 68 75
e 68 87
e 68 89
e 69 80
e 69 95
e 69 96
e 70 71
e 70 72
e 70 73
e 70 78
e 70 81
e 70 86
e 70 92
e 70 100
e 71 76
e 71 85
e 72 73
e 72 83
e 72 96
e 72 100
e 73 81
e 73 89
e 73 95
e 73 97
e 73 98
e 73 100
e 74 76
e 74 88
e 74 89
e 75 83
e 75 84
e 75 100
e 76 80
e 76 81
e 76 96
e 76 97
e 76 98
e 77 92
e 77 96
e 77 99
e 77 100
e 78 79
e 78 93
e 79 89
e 79 91
e 79 97
e 79 98
e 80 98
e 81 84
e 81 85
e 82 84
e 83 86
e 84 91
e 84 93
e 85 86
e 85 88
e 85 95
e 85 96
e 86 90
e 86 93
e 87 91
e 87 97
e 87 98
e 89 93
e 89 100
e 90 97
e 91 99
e 92 97
e 92 99
e 94 99
